21571
22225
22797
23383
23843
24174
24367
24455
24517
24580
24609
24626
24647
24665
24679
24689
24700
24711
24721
24730
24736
24743
24751
24752
24752
24752
24752
24752
24752
24752
24752
24752
24752
24753
24753
24753
24753
24753
24753
24754
24754
24754
24754
24755
24756
24757
24757
24758
24758
24760
24762
24765
24768
24770
24771
24773
24776
24777
24778
24779
24781
24784
24788
24792
24794
24801
24811
24821
24824
24825
24828
24831
24835
24835
24835
24835
24835
24836
24836
24836
24836
24837
24837
24837
24838
24840
24841
24842
24843
24845
24848
24852
24858
24867
24878
24880
24880
24880
24880
